NAME : Y-n4-k2
COMMENT : (Yan Sirianni, No of trucks: 3, Optimal value: ?)
TYPE : CVRP
DIMENSION : 4
EDGE_WEIGHT_TYPE : EUC_2D
CAPACITY : 40
NODE_COORD_SECTION
1 30 40
2 37 52
3 49 43
4 52 64
DEMAND_SECTION
1 0
2 19
3 30
4 16
DEPOT_SECTION
 1
 -1
EOF
